data;

param n := 6;
param o := 2;

param c :=
1 6 1
6 3 1
1 5 2
5 4 2

4 3 2
2 6 1
6 5 1
6 4 1

1 2 5
2 3 5
3 4 5;

param u :=
1 6 20
6 3 20
1 5 20
5 4 20

4 3 20
2 6 20
6 5 20
6 4 20

1 2 20
2 3 20
3 4 20;

param s :=
1 6 1
6 3 1
1 5 2
5 4 2

4 3 2
2 6 1
6 5 0
6 4 1

1 2 5	
2 3 5
3 4 5;


param:  src dest demand :=
1	1	3	5
2	2	4	3;